# Solution for model r10_t27_m3_7 Batch Number: 1
# Finished Task: 27 / 27
# Makespan: 517.0, Total Distance: 324.0, Total Time: 122.9685
# R O S F Batch
0 0 11 0.0 0.0 -1
1 1 35 0.0 0.0 -1
2 2 36 0.0 0.0 -1
3 3 16 0.0 0.0 -1
4 4 13 0.0 0.0 -1
5 5 21 0.0 0.0 -1
6 6 32 0.0 0.0 -1
7 7 34 0.0 0.0 -1
8 8 23 0.0 0.0 -1
9 9 15 0.0 0.0 -1
10 5 31 247.0 280.0 0
11 0 20 216.0 245.0 0
12 3 14 279.0 318.0 0
13 4 19 310.0 339.0 0
14 3 30 327.0 365.0 0
15 9 29 245.0 265.0 0
16 3 12 202.0 223.0 0
17 2 -1 301.0 336.0 0
18 1 -1 494.0 517.0 0
19 4 -1 354.0 383.0 0
20 0 22 254.0 278.0 0
21 5 10 203.0 233.0 0
22 0 24 378.0 401.0 0
23 8 -1 383.0 403.0 0
24 0 -1 468.0 492.0 0
25 9 27 401.0 434.0 0
26 7 -1 492.0 517.0 0
27 9 -1 444.0 469.0 0
28 7 26 365.0 392.0 0
29 9 25 289.0 310.0 0
30 3 -1 377.0 414.0 0
31 5 33 403.0 428.0 0
32 6 -1 434.0 468.0 0
33 5 -1 439.0 465.0 0
34 7 28 203.0 223.0 0
35 1 18 447.0 485.0 0
36 2 17 242.0 268.0 0
